c CNF file corresponding to a (partial) station packing problem.
p cnf 2336 229
1 2 3 4 5 6 7 8 9 10 11 12 13 14 0
-1 -2 0
-1 -3 0
-1 -4 0
-1 -5 0
-1 -6 0
-1 -7 0
-1 -8 0
-1 -9 0
-1 -10 0
-1 -11 0
-1 -12 0
-1 -13 0
-1 -14 0
-2 -3 0
-2 -4 0
-2 -5 0
-2 -6 0
-2 -7 0
-2 -8 0
-2 -9 0
-2 -10 0
-2 -11 0
-2 -12 0
-2 -13 0
-2 -14 0
-3 -4 0
-3 -5 0
-3 -6 0
-3 -7 0
-3 -8 0
-3 -9 0
-3 -10 0
-3 -11 0
-3 -12 0
-3 -13 0
-3 -14 0
-4 -5 0
-4 -6 0
-4 -7 0
-4 -8 0
-4 -9 0
-4 -10 0
-4 -11 0
-4 -12 0
-4 -13 0
-4 -14 0
-5 -6 0
-5 -7 0
-5 -8 0
-5 -9 0
-5 -10 0
-5 -11 0
-5 -12 0
-5 -13 0
-5 -14 0
-6 -7 0
-6 -8 0
-6 -9 0
-6 -10 0
-6 -11 0
-6 -12 0
-6 -13 0
-6 -14 0
-7 -8 0
-7 -9 0
-7 -10 0
-7 -11 0
-7 -12 0
-7 -13 0
-7 -14 0
-8 -9 0
-8 -10 0
-8 -11 0
-8 -12 0
-8 -13 0
-8 -14 0
-9 -10 0
-9 -11 0
-9 -12 0
-9 -13 0
-9 -14 0
-10 -11 0
-10 -12 0
-10 -13 0
-10 -14 0
-11 -12 0
-11 -13 0
-11 -14 0
-12 -13 0
-12 -14 0
-13 -14 0
2320 2321 2322 2323 2324 2325 2326 2327 2328 2329 2330 2331 2332 2333 2334 2335 2336 0
-2320 -2321 0
-2320 -2322 0
-2320 -2323 0
-2320 -2324 0
-2320 -2325 0
-2320 -2326 0
-2320 -2327 0
-2320 -2328 0
-2320 -2329 0
-2320 -2330 0
-2320 -2331 0
-2320 -2332 0
-2320 -2333 0
-2320 -2334 0
-2320 -2335 0
-2320 -2336 0
-2321 -2322 0
-2321 -2323 0
-2321 -2324 0
-2321 -2325 0
-2321 -2326 0
-2321 -2327 0
-2321 -2328 0
-2321 -2329 0
-2321 -2330 0
-2321 -2331 0
-2321 -2332 0
-2321 -2333 0
-2321 -2334 0
-2321 -2335 0
-2321 -2336 0
-2322 -2323 0
-2322 -2324 0
-2322 -2325 0
-2322 -2326 0
-2322 -2327 0
-2322 -2328 0
-2322 -2329 0
-2322 -2330 0
-2322 -2331 0
-2322 -2332 0
-2322 -2333 0
-2322 -2334 0
-2322 -2335 0
-2322 -2336 0
-2323 -2324 0
-2323 -2325 0
-2323 -2326 0
-2323 -2327 0
-2323 -2328 0
-2323 -2329 0
-2323 -2330 0
-2323 -2331 0
-2323 -2332 0
-2323 -2333 0
-2323 -2334 0
-2323 -2335 0
-2323 -2336 0
-2324 -2325 0
-2324 -2326 0
-2324 -2327 0
-2324 -2328 0
-2324 -2329 0
-2324 -2330 0
-2324 -2331 0
-2324 -2332 0
-2324 -2333 0
-2324 -2334 0
-2324 -2335 0
-2324 -2336 0
-2325 -2326 0
-2325 -2327 0
-2325 -2328 0
-2325 -2329 0
-2325 -2330 0
-2325 -2331 0
-2325 -2332 0
-2325 -2333 0
-2325 -2334 0
-2325 -2335 0
-2325 -2336 0
-2326 -2327 0
-2326 -2328 0
-2326 -2329 0
-2326 -2330 0
-2326 -2331 0
-2326 -2332 0
-2326 -2333 0
-2326 -2334 0
-2326 -2335 0
-2326 -2336 0
-2327 -2328 0
-2327 -2329 0
-2327 -2330 0
-2327 -2331 0
-2327 -2332 0
-2327 -2333 0
-2327 -2334 0
-2327 -2335 0
-2327 -2336 0
-2328 -2329 0
-2328 -2330 0
-2328 -2331 0
-2328 -2332 0
-2328 -2333 0
-2328 -2334 0
-2328 -2335 0
-2328 -2336 0
-2329 -2330 0
-2329 -2331 0
-2329 -2332 0
-2329 -2333 0
-2329 -2334 0
-2329 -2335 0
-2329 -2336 0
-2330 -2331 0
-2330 -2332 0
-2330 -2333 0
-2330 -2334 0
-2330 -2335 0
-2330 -2336 0
-2331 -2332 0
-2331 -2333 0
-2331 -2334 0
-2331 -2335 0
-2331 -2336 0
-2332 -2333 0
-2332 -2334 0
-2332 -2335 0
-2332 -2336 0
-2333 -2334 0
-2333 -2335 0
-2333 -2336 0
-2334 -2335 0
-2334 -2336 0
-2335 -2336 0
